c 3sat Node
p cnf 10 20
-7 -4 -9 0
8 3 -8 0
-9 -4 6 0
5 9 10 0
4 -7 -2 0
2 -1 4 0
7 -3 -8 0
-6 1 -2 0
-9 -5 -1 0
1 -7 8 0
1 9 10 0
-10 2 7 0
-6 -2 4 0
3 6 9 0
-3 -1 -8 0
-3 6 8 0
-10 7 2 0
-4 -10 -5 0
5 10 -6 0
3 -5 5 0
